certificates/rado_a13_c75_N34.cnf
c Rad2 upper bound instance: x1 + 13*x2 - x3 = 75, interval [1,34]
p cnf 34 178
1 4 6 0
-1 -4 -6 0
1 7 17 0
-1 -7 -17 0
1 8 30 0
-1 -8 -30 0
2 5 6 0
-2 -5 -6 0
2 7 18 0
-2 -7 -18 0
2 8 31 0
-2 -8 -31 0
3 6 0
-3 -6 0
3 7 19 0
-3 -7 -19 0
3 8 32 0
-3 -8 -32 0
4 6 7 0
-4 -6 -7 0
4 7 20 0
-4 -7 -20 0
4 8 33 0
-4 -8 -33 0
5 6 8 0
-5 -6 -8 0
5 7 21 0
-5 -7 -21 0
5 8 34 0
-5 -8 -34 0
6 9 0
-6 -9 0
6 7 22 0
-6 -7 -22 0
6 7 10 0
-6 -7 -10 0
7 23 0
-7 -23 0
6 8 11 0
-6 -8 -11 0
7 8 24 0
-7 -8 -24 0
6 9 12 0
-6 -9 -12 0
7 9 25 0
-7 -9 -25 0
6 10 13 0
-6 -10 -13 0
7 10 26 0
-7 -10 -26 0
1 5 11 0
-1 -5 -11 0
6 11 14 0
-6 -11 -14 0
7 11 27 0
-7 -11 -27 0
2 5 12 0
-2 -5 -12 0
6 12 15 0
-6 -12 -15 0
7 12 28 0
-7 -12 -28 0
3 5 13 0
-3 -5 -13 0
6 13 16 0
-6 -13 -16 0
7 13 29 0
-7 -13 -29 0
4 5 14 0
-4 -5 -14 0
6 14 17 0
-6 -14 -17 0
7 14 30 0
-7 -14 -30 0
5 15 0
-5 -15 0
6 15 18 0
-6 -15 -18 0
7 15 31 0
-7 -15 -31 0
5 6 16 0
-5 -6 -16 0
6 16 19 0
-6 -16 -19 0
7 16 32 0
-7 -16 -32 0
5 7 17 0
-5 -7 -17 0
6 17 20 0
-6 -17 -20 0
7 17 33 0
-7 -17 -33 0
5 8 18 0
-5 -8 -18 0
6 18 21 0
-6 -18 -21 0
7 18 34 0
-7 -18 -34 0
5 9 19 0
-5 -9 -19 0
6 19 22 0
-6 -19 -22 0
5 10 20 0
-5 -10 -20 0
6 20 23 0
-6 -20 -23 0
5 11 21 0
-5 -11 -21 0
6 21 24 0
-6 -21 -24 0
5 12 22 0
-5 -12 -22 0
6 22 25 0
-6 -22 -25 0
5 13 23 0
-5 -13 -23 0
6 23 26 0
-6 -23 -26 0
1 4 24 0
-1 -4 -24 0
5 14 24 0
-5 -14 -24 0
6 24 27 0
-6 -24 -27 0
2 4 25 0
-2 -4 -25 0
5 15 25 0
-5 -15 -25 0
6 25 28 0
-6 -25 -28 0
3 4 26 0
-3 -4 -26 0
5 16 26 0
-5 -16 -26 0
6 26 29 0
-6 -26 -29 0
4 27 0
-4 -27 0
5 17 27 0
-5 -17 -27 0
6 27 30 0
-6 -27 -30 0
4 5 28 0
-4 -5 -28 0
5 18 28 0
-5 -18 -28 0
6 28 31 0
-6 -28 -31 0
4 6 29 0
-4 -6 -29 0
5 19 29 0
-5 -19 -29 0
6 29 32 0
-6 -29 -32 0
4 7 30 0
-4 -7 -30 0
5 20 30 0
-5 -20 -30 0
6 30 33 0
-6 -30 -33 0
4 8 31 0
-4 -8 -31 0
5 21 31 0
-5 -21 -31 0
6 31 34 0
-6 -31 -34 0
4 9 32 0
-4 -9 -32 0
5 22 32 0
-5 -22 -32 0
4 10 33 0
-4 -10 -33 0
5 23 33 0
-5 -23 -33 0
4 11 34 0
-4 -11 -34 0
5 24 34 0
-5 -24 -34 0
