certificates/rado_a13_c75_N34.drat
6 -32 0
4 30 -6 -34 0
30 -6 -34 0
d 4 30 -6 -34 0
-6 -33 -34 0
-7 6 0
-33 -34 0
d -6 -33 -34 0
6 -34 0
-6 -34 0
d 30 -6 -34 0
-34 0
7 -6 0
-7 -6 0
d -7 -4 -6 0
-6 0
3 0
9 0
31 0
-32 0
-7 0
29 0
16 0
22 0
10 0
23 0
18 0
4 0
-27 0
-33 0
-26 0
-8 0
30 0
24 0
11 0
17 0
5 0
-1 0
-13 0
-14 0
-15 0
-19 0
-20 0
-21 0
-12 0
-28 0
0
